10	6	3.2
2 5 1 4 2 4 3 1 4 8 6 2 1 4 1
2 2 1 5 6 2 4 2 2 3 2 4 8 5 9
2 2 2 5 6 5 2 4 4 5 5
2 3 1 4 3 2 4 3 2 4 8 5 3
2 1 2 2 3 2 6 4 2 5 1
2 5 1 9 2 9 3 6 4 5 5 2 2 4 9 6 5
2 3 1 2 2 9 3 1 1 1 8
2 2 3 3 4 3 4 2 5 3 5 4 1 6 6
2 6 1 3 2 5 3 1 4 8 5 5 6 3 5 1 7 3 2 4 6 5 7 6 9
2 6 1 6 2 8 3 7 4 2 5 9 6 9 5 2 2 3 5 4 4 5 5 6 3
